c User generated cnf file
p cnf 13 50
2 -2 1 0 
3 10 -12 0 
6 -7 7 0 
9 -7 13 0 
13 8 -4 0 
5 9 -10 0 
9 11 -8 0 
2 10 -5 0 
5 -7 12 0 
6 -6 13 0 
8 -6 2 0 
8 -10 11 0 
13 4 -11 0 
12 4 -9 0 
11 -10 4 0 
6 8 -5 0 
5 -7 11 0 
11 11 -3 0 
8 7 -6 0 
2 -8 3 0 
1 10 -1 0 
8 1 -8 0 
7 5 -11 0 
7 -7 10 0 
10 -6 2 0 
9 12 -9 0 
12 -7 12 0 
1 13 -5 0 
8 4 -12 0 
9 -4 10 0 
1 8 -7 0 
12 -1 2 0 
1 -10 4 0 
6 4 -9 0 
10 -9 5 0 
3 7 -3 0 
13 -12 3 0 
6 5 -13 0 
1 8 -10 0 
13 -13 12 0 
2 -11 4 0 
1 -7 10 0 
4 6 -3 0 
13 4 -8 0 
6 -5 4 0 
3 13 -1 0 
3 -12 11 0 
6 -11 7 0 
7 -10 5 0 
7 9 -2 0 
